# Solution for model micodag
# Objective value = 1.6038823117950333e+01
s_0_1 0
s_1_0 0
s_0_2 0
s_2_0 2.4610419797091421e-01
s_0_3 0
s_3_0 2.7660887924228827e-01
s_1_8 0
s_8_1 1.2751473659620816e+00
s_3_4 0
s_4_3 4.5210358991170070e+00
s_3_5 0
s_5_3 0
s_3_6 0
s_6_3 0
s_3_7 0
s_7_3 0
s_3_9 0
s_9_3 0
s_3_10 0
s_10_3 4.5210358991170070e+00
s_3_13 0
s_13_3 4.5210358991170070e+00
s_4_5 0
s_5_4 2.6825251738030520e-01
s_4_6 0
s_6_4 7.4452114311971940e-01
s_4_7 0
s_7_4 1.2851796513154818e+00
s_5_10 0
s_10_5 2.1982163740872362e-01
s_6_7 0
s_7_6 0
s_6_9 0
s_9_6 0
s_6_10 0
s_10_6 0
s_6_13 0
s_13_6 5.7498746957140545e-01
s_7_9 0
s_9_7 0
s_7_10 0
s_10_7 0
s_7_13 0
s_13_7 6.2168276045334547e-01
s_8_9 0
s_9_8 7.3494604118782725e-01
s_9_10 0
s_10_9 0
s_9_13 0
s_13_9 3.4340279594953227e-01
s_10_11 0
s_11_10 4.5210358991170070e+00
s_10_12 0
s_12_10 4.5210358991170070e+00
s_10_13 0
s_13_10 4.5210358991170070e+00
s_0_0 6.6025776898611666e-01
s_1_1 1.04046084008889
s_2_2 6.7666597993684530e-01
s_3_3 4.5210358991170070e+00
s_4_4 8.6949283274508815e-01
s_5_5 7.4389793487878109e-01
s_6_6 1.0219616835395637e+00
s_7_7 2.0766818920984327e+00
s_8_8 2.0588821675962192e+00
s_9_9 1.0869746089990597e+00
s_10_10 4.5210358991170070e+00
s_11_11 6.6997376517776175e-01
s_12_12 9.4856697585333016e-01
s_13_13 9.7238988344529265e-01
Gamma_0_0 8.1256247082062349e-01
Gamma_0_1 0
Gamma_0_2 0
Gamma_0_3 0
Gamma_0_4 0
Gamma_0_5 0
Gamma_0_6 0
Gamma_0_7 0
Gamma_0_8 0
Gamma_0_9 0
Gamma_0_10 0
Gamma_0_11 0
Gamma_0_12 0
Gamma_0_13 0
Gamma_1_0 0
Gamma_1_1 1.0200298231369953e+00
Gamma_1_2 0
Gamma_1_3 0
Gamma_1_4 0
Gamma_1_5 0
Gamma_1_6 0
Gamma_1_7 0
Gamma_1_8 0
Gamma_1_9 0
Gamma_1_10 0
Gamma_1_11 0
Gamma_1_12 0
Gamma_1_13 0
Gamma_2_0 -4.9608890127769928e-01
Gamma_2_1 0
Gamma_2_2 8.2259709453464880e-01
Gamma_2_3 0
Gamma_2_4 0
Gamma_2_5 0
Gamma_2_6 0
Gamma_2_7 0
Gamma_2_8 0
Gamma_2_9 0
Gamma_2_10 0
Gamma_2_11 0
Gamma_2_12 0
Gamma_2_13 0
Gamma_3_0 0.525936193128301
Gamma_3_1 0
Gamma_3_2 0
Gamma_3_3 8.2418560857351753e-01
Gamma_3_4 0
Gamma_3_5 0
Gamma_3_6 0
Gamma_3_7 0
Gamma_3_8 0
Gamma_3_9 0
Gamma_3_10 0
Gamma_3_11 0
Gamma_3_12 0
Gamma_3_13 0
Gamma_4_0 0
Gamma_4_1 0
Gamma_4_2 0
Gamma_4_3 -4.8652966544243731e-01
Gamma_4_4 9.3246599548996367e-01
Gamma_4_5 0
Gamma_4_6 0
Gamma_4_7 0
Gamma_4_8 0
Gamma_4_9 0
Gamma_4_10 0
Gamma_4_11 0
Gamma_4_12 0
Gamma_4_13 0
Gamma_5_0 0
Gamma_5_1 0
Gamma_5_2 0
Gamma_5_3 0
Gamma_5_4 -5.1793099673634635e-01
Gamma_5_5 8.6249517962640343e-01
Gamma_5_6 0
Gamma_5_7 0
Gamma_5_8 0
Gamma_5_9 0
Gamma_5_10 0
Gamma_5_11 0
Gamma_5_12 0
Gamma_5_13 0
Gamma_6_0 0
Gamma_6_1 0
Gamma_6_2 0
Gamma_6_3 0
Gamma_6_4 8.6285638614993176e-01
Gamma_6_5 0
Gamma_6_6 1.0109212054060219e+00
Gamma_6_7 0
Gamma_6_8 0
Gamma_6_9 0
Gamma_6_10 0
Gamma_6_11 0
Gamma_6_12 0
Gamma_6_13 0
Gamma_7_0 0
Gamma_7_1 0
Gamma_7_2 0
Gamma_7_3 0
Gamma_7_4 -1.1336576429043654e+00
Gamma_7_5 0
Gamma_7_6 0
Gamma_7_7 1.4410697041081784e+00
Gamma_7_8 0
Gamma_7_9 0
Gamma_7_10 0
Gamma_7_11 0
Gamma_7_12 0
Gamma_7_13 0
Gamma_8_0 0
Gamma_8_1 1.1292242319229970e+00
Gamma_8_2 0
Gamma_8_3 0
Gamma_8_4 0
Gamma_8_5 0
Gamma_8_6 0
Gamma_8_7 0
Gamma_8_8 1.4348805412285091e+00
Gamma_8_9 0
Gamma_8_10 0
Gamma_8_11 0
Gamma_8_12 0
Gamma_8_13 0
Gamma_9_0 0
Gamma_9_1 0
Gamma_9_2 0
Gamma_9_3 0
Gamma_9_4 0
Gamma_9_5 0
Gamma_9_6 0
Gamma_9_7 0
Gamma_9_8 8.5728993997820135e-01
Gamma_9_9 1.0425807445944222e+00
Gamma_9_10 0
Gamma_9_11 0
Gamma_9_12 0
Gamma_9_13 0
Gamma_10_0 0
Gamma_10_1 0
Gamma_10_2 0
Gamma_10_3 -6.4753942039759138e-01
Gamma_10_4 0
Gamma_10_5 -4.6885140226805788e-01
Gamma_10_6 0
Gamma_10_7 0
Gamma_10_8 0
Gamma_10_9 0
Gamma_10_10 7.9036745174915723e-01
Gamma_10_11 0
Gamma_10_12 0
Gamma_10_13 0
Gamma_11_0 0
Gamma_11_1 0
Gamma_11_2 0
Gamma_11_3 0
Gamma_11_4 0
Gamma_11_5 0
Gamma_11_6 0
Gamma_11_7 0
Gamma_11_8 0
Gamma_11_9 0
Gamma_11_10 -4.5043852397734807e-01
Gamma_11_11 0.818519251562089
Gamma_11_12 0
Gamma_11_13 0
Gamma_12_0 0
Gamma_12_1 0
Gamma_12_2 0
Gamma_12_3 0
Gamma_12_4 0
Gamma_12_5 0
Gamma_12_6 0
Gamma_12_7 0
Gamma_12_8 0
Gamma_12_9 0
Gamma_12_10 -7.9751561122142656e-01
Gamma_12_11 0
Gamma_12_12 9.7394403117085282e-01
Gamma_12_13 0
Gamma_13_0 0
Gamma_13_1 0
Gamma_13_2 0
Gamma_13_3 7.8594392368113675e-01
Gamma_13_4 0
Gamma_13_5 0
Gamma_13_6 -7.5827928204020334e-01
Gamma_13_7 7.8846861729135809e-01
Gamma_13_8 0
Gamma_13_9 -5.8600579856306279e-01
Gamma_13_10 -7.9613277237037261e-01
Gamma_13_11 0
Gamma_13_12 0
Gamma_13_13 9.8609831327575714e-01
psi_0 5
psi_1 3
psi_2 0
psi_3 4
psi_4 3
psi_5 2
psi_6 1
psi_7 1
psi_8 2
psi_9 1
psi_10 1
psi_11 0
psi_12 0
psi_13 0
g_0_0 0
g_0_1 0
g_0_2 0
g_0_3 0
g_0_4 0
g_0_5 0
g_0_6 0
g_0_7 0
g_0_8 0
g_0_9 0
g_0_10 0
g_0_11 0
g_0_12 0
g_0_13 0
g_1_0 0
g_1_1 0
g_1_2 0
g_1_3 0
g_1_4 0
g_1_5 0
g_1_6 0
g_1_7 0
g_1_8 0
g_1_9 0
g_1_10 0
g_1_11 0
g_1_12 0
g_1_13 0
g_2_0 1
g_2_1 0
g_2_2 0
g_2_3 0
g_2_4 0
g_2_5 0
g_2_6 0
g_2_7 0
g_2_8 0
g_2_9 0
g_2_10 0
g_2_11 0
g_2_12 0
g_2_13 0
g_3_0 1
g_3_1 0
g_3_2 0
g_3_3 0
g_3_4 0
g_3_5 0
g_3_6 0
g_3_7 0
g_3_8 0
g_3_9 0
g_3_10 0
g_3_11 0
g_3_12 0
g_3_13 0
g_4_0 0
g_4_1 0
g_4_2 0
g_4_3 1
g_4_4 0
g_4_5 0
g_4_6 0
g_4_7 0
g_4_8 0
g_4_9 0
g_4_10 0
g_4_11 0
g_4_12 0
g_4_13 0
g_5_0 0
g_5_1 0
g_5_2 0
g_5_3 0
g_5_4 1
g_5_5 0
g_5_6 0
g_5_7 0
g_5_8 0
g_5_9 0
g_5_10 0
g_5_11 0
g_5_12 0
g_5_13 0
g_6_0 0
g_6_1 0
g_6_2 0
g_6_3 0
g_6_4 1
g_6_5 0
g_6_6 0
g_6_7 0
g_6_8 0
g_6_9 0
g_6_10 0
g_6_11 0
g_6_12 0
g_6_13 0
g_7_0 0
g_7_1 0
g_7_2 0
g_7_3 0
g_7_4 1
g_7_5 0
g_7_6 0
g_7_7 0
g_7_8 0
g_7_9 0
g_7_10 0
g_7_11 0
g_7_12 0
g_7_13 0
g_8_0 0
g_8_1 1
g_8_2 0
g_8_3 0
g_8_4 0
g_8_5 0
g_8_6 0
g_8_7 0
g_8_8 0
g_8_9 0
g_8_10 0
g_8_11 0
g_8_12 0
g_8_13 0
g_9_0 0
g_9_1 0
g_9_2 0
g_9_3 0
g_9_4 0
g_9_5 0
g_9_6 0
g_9_7 0
g_9_8 1
g_9_9 0
g_9_10 0
g_9_11 0
g_9_12 0
g_9_13 0
g_10_0 0
g_10_1 0
g_10_2 0
g_10_3 1
g_10_4 0
g_10_5 1
g_10_6 0
g_10_7 0
g_10_8 0
g_10_9 0
g_10_10 0
g_10_11 0
g_10_12 0
g_10_13 0
g_11_0 0
g_11_1 0
g_11_2 0
g_11_3 0
g_11_4 0
g_11_5 0
g_11_6 0
g_11_7 0
g_11_8 0
g_11_9 0
g_11_10 1
g_11_11 0
g_11_12 0
g_11_13 0
g_12_0 0
g_12_1 0
g_12_2 0
g_12_3 0
g_12_4 0
g_12_5 0
g_12_6 0
g_12_7 0
g_12_8 0
g_12_9 0
g_12_10 1
g_12_11 0
g_12_12 0
g_12_13 0
g_13_0 0
g_13_1 0
g_13_2 0
g_13_3 1
g_13_4 0
g_13_5 0
g_13_6 1
g_13_7 1
g_13_8 0
g_13_9 1
g_13_10 1
g_13_11 0
g_13_12 0
g_13_13 0
T_0 4.1512496114013686e-01
T_1 -3.9663730476704018e-02
T_2 3.9057751048657963e-01
T_3 3.8671904263027557e-01
T_4 1.3984518818314484e-01
T_5 2.9585143786238177e-01
T_6 -2.1723999434428265e-02
T_7 -7.3077137577296014e-01
T_8 -7.2216319843148824e-01
T_9 -8.3398249079735365e-02
T_10 4.7051462572707692e-01
T_11 4.0051672381486014e-01
T_12 0.0528028797085085
T_13 2.7998440291028714e-02
